c --- [ banner ] -------------------------------------------------------------
c 
c CaDiCaL Radically Simplified CDCL SAT Solver
c Copyright (c) 2016-2021 A. Biere, M. Fleury, N. Froleyks
c 
c Version 1.5.2 9c38a080b32c28d805e8e6ca21849856b0cda605
c g++ (Ubuntu 7.5.0-3ubuntu1~18.04) 7.5.0 -Wall -Wextra -O3 -DNDEBUG
c Wed Feb 16 23:15:36 EST 2022 Linux fac-vanhoeve01 5.4.0-99-generic x86_64
c 
c --- [ limit ] --------------------------------------------------------------
c 
c setting time limit to 600 seconds real time (due to '-t 600')
c setting conflict limit to 1000000000 conflicts (due to '1000000000')
c 
c --- [ parsing input ] ------------------------------------------------------
c 
c reading DIMACS file from 'ddfwcnfs/wap03a.col_40.cnf'
c opening file to read 'ddfwcnfs/wap03a.col_40.cnf'
c found 'p cnf 189200 11282890' header
c parsed 11282890 clauses in 6.33 seconds process time
c closing file 'ddfwcnfs/wap03a.col_40.cnf'
c after reading 194993117 bytes 186.0 MB
c 
c --- [ options ] ------------------------------------------------------------
c 
c all options are set to their default value
c 
c --- [ solving ] ------------------------------------------------------------
c 
c time measured in process time since initialization
c 
c  seconds   reductions  redundant   irredundant
c          MB    restarts       trail         variables
c           level   conflicts       glue            remaining
c 
c *  6.33 971  0 0   0    0    0  0% 0 11281290 187600 99%
c {  6.37 973  0 0   0    0    0  0% 0 11281290 187600 99%
c -  8.24 973 40 1   0  300  187  5% 37 11281290 187600 99%
c }  8.44 973 40 1   0 1002  549  5% 37 11281290 187600 99%
c [  8.44 973  0 1   0 1002  549  0% 0 11281290 187600 99%
c O  8.44 973 38 1   0 1003  550  2% 38 11281290 187600 99%
c - 13.45 1232 42 2   1 2133 1125  2% 39 11281290 187600 99%
c ] 13.54 1232 42 2   1 3002 1698  2% 39 11281290 187600 99%
c { 13.54 1232 40 2   1 3002 1698  5% 37 11281290 187600 99%
c F 13.54 1232 40 2   1 3004 1700  5% 37 11281290 187600 99%
c - 17.50 1233 41 3  13 4880 2166  5% 38 11281290 187600 99%
c # 26.08 1228 41 3  13 6005 2860  5% 38 11281290 187600 99%
c } 26.18 1228 46 3  13 7003 3395  5% 37 11281290 187600 99%
c [ 26.18 1228 42 3  13 7003 3395  2% 39 11281290 187600 99%
c - 29.91 1228 45 4  14 8542 2998  2% 39 11281290 187600 99%
c I 30.06 1228 49 4  15 10006 4111  2% 41 11281290 187600 99%
c s 34.09 1229 3661 4  17 11822 4865  9% 52 11281290 187600 99%
c e 52.99 1230 3661 4  17 11822 1924  9% 52 10733267 181195 96%
c s 55.07 1230 3661 4  17 11822 1864  9% 52 10733267 181195 96%
c ^ 57.30 1230 3661 4  17 11822 1864  9% 52 10733267 181195 96%
c 
c  seconds      reductions   redundant    irredundant
c          MB       restarts        trail          variables
c             level     conflicts       glue             remaining
c 
c - 61.41 1152 3451 5  17 13121 2490 11% 52 10733267 181195 96%
c ] 70.54 1234 6361 5  18 15003 3940 18% 62 10733267 181195 96%
c { 70.54 1234 46 5  18 15003 3940  5% 37 10733267 181195 96%
c B 70.61 1234 58 5  18 15010 3947  5% 37 10733267 181195 96%
c - 74.73 1234 70 6  41 18579 4342  5% 38 10733267 181195 96%
c W 78.78 1234 63 6  55 21012 5714  5% 38 10733267 181195 96%
c - 82.74 1234 57 7  64 24944 4873  5% 38 10733267 181195 96%
c F 83.03 1234 54 7  64 28013 6751  5% 38 10733267 181195 96%
c } 92.02 1234 52 7  65 31003 8751  5% 38 10733267 181195 96%
c [ 92.02 1234 6361 7  65 31003 8751 18% 62 10733267 181195 96%
c - 95.88 1234 5647 8  65 32219 6221 16% 60 10733267 181195 96%
c ^ 116.37 1234 4356 8  67 35377 8736 13% 56 10733267 181195 96%
c B 116.48 1234 4160 8  68 36015 9052 13% 55 10733267 181195 96%
c - 120.70 1235 3294 9  71 40402 8117 12% 59 10733267 181195 96%
c W 125.23 1235 2646 9  72 45018 11727 11% 60 10733267 181195 96%
c - 130.00 1237 4834 10  73 49497 9717 16% 70 10733267 181195 96%
c O 139.91 1237 4314 10  74 55020 14151 18% 77 10733267 181195 96%
c - 144.14 1236 3729 11  78 59498 9864 16% 73 10733267 181195 96%
c ] 144.51 1236 3360 11  80 63004 12305 15% 69 10733267 181195 96%
c { 144.51 1236 52 11  80 63004 12305  5% 38 10733267 181195 96%
c 
c  seconds     reductions     redundant    irredundant
c           MB      restarts         trail          variables
c             level     conflicts        glue             remaining
c 
c B 144.79 1236 57 11  80 66022 14473  5% 38 10733267 181195 96%
c - 149.10 1235 125 12  99 70412 9896  5% 38 10733267 181195 96%
c s 149.53 1235 127 12  99 70708 9255  5% 38 10733267 181195 96%
c s 167.21 1235 127 12  99 70708 8269  5% 38 10733267 181195 96%
c ^ 169.58 1235 127 12  99 70708 8269  5% 38 10733267 181195 96%
c W 185.27 1235 166 12 122 78023 12596  5% 38 10733267 181195 96%
c - 189.59 1235 163 13 152 82231 9938  5% 38 10733267 181195 96%
c # 190.59 1235 156 13 179 91024 14992  5% 39 10733267 181195 96%
c - 194.87 1235 149 14 179 94961 11081  5% 38 10733267 181195 96%
c B 205.49 1235 128 14 181 105026 18354  4% 38 10733267 181195 96%
c - 209.83 1235 124 15 211 108599 12286  5% 38 10733267 181195 96%
c s 211.16 1235 110 15 322 117817 16595  4% 38 10733267 181195 96%
c w 220.85 1235 110 15 322 117817 16594  4% 38 10733267 181195 96%
c s 229.68 1235 110 15 322 117817 16114  4% 38 10733267 181195 96%
c ^ 232.10 1235 110 15 322 117817 16114  4% 38 10733267 181195 96%
c W 238.14 1235 107 15 322 120028 17563  4% 38 10733267 181195 96%
c - 242.97 1236 104 16 360 123147 12581  4% 38 10733267 181195 96%
c } 243.37 1236 100 16 394 127004 14642  4% 38 10733267 181195 96%
c [ 243.37 1236 3360 16 394 127004 14642 15% 69 10733267 181195 96%
c B 244.22 1236 2858 16 399 136029 21365 14% 66 10733267 181195 96%
c 
c  seconds       reductions      redundant    irredundant
c           MB        restarts          trail          variables
c              level      conflicts         glue             remaining
c 
c - 249.05 1237 2991 17 400 138604 14452 16% 67 10733267 181195 96%
c W 268.38 1237 2710 17 403 153030 26120 22% 75 10733267 181195 96%
c - 272.67 1240 2659 18 403 154970 17009 22% 75 10733267 181195 96%
c I 274.74 1240 2364 18 406 171031 29280 26% 76 10733267 181195 96%
c - 279.34 1239 2658 19 407 172246 17887 26% 78 10733267 181195 96%
c s 280.50 1239 2618 19 410 176706 21122 24% 80 10733267 181195 96%
c w 288.73 1239 2618 19 410 176706 21122 24% 80 10733267 181195 96%
c s 296.82 1239 2618 19 410 176706 21064 24% 80 10733267 181195 96%
c ^ 298.88 1239 2618 19 410 176706 21064 24% 80 10733267 181195 96%
c B 310.55 1239 3144 19 417 190033 31069 23% 87 10733267 181195 96%
c - 314.03 1241 3219 20 417 190431 18803 23% 86 10733267 181195 96%
c - 318.79 1238 2854 21 425 209524 18847 19% 79 10733267 181195 96%
c W 325.19 1238 2834 21 425 210035 19156 19% 79 10733267 181195 96%
c - 338.65 1237 2192 22 433 229529 17730 15% 72 10733267 181195 96%
c O 338.75 1237 2150 22 433 231036 18809 15% 71 10733267 181195 96%
c s 340.41 1237 1757 22 434 247367 30387 13% 66 10733267 181195 96%
c s 357.10 1237 1757 22 434 247367 30094 13% 66 10733267 181195 96%
c - 363.05 1237 1693 23 435 250442 19464 12% 65 10733267 181195 96%
c B 363.25 1237 1642 23 435 253039 21135 12% 64 10733267 181195 96%
c ] 363.40 1237 1610 23 435 255004 22696 12% 64 10733267 181195 96%
c 
c  seconds      reductions      redundant    irredundant
c           MB       restarts          trail          variables
c              level     conflicts         glue             remaining
c 
c { 363.40 1237 100 23 435 255004 22696  4% 38 10733267 181195 96%
c - 368.77 1237 86 24 498 272263 19458  4% 39 10733267 181195 96%
c F 377.56 1237 84 24 502 276041 21671  4% 39 10733267 181195 96%
c - 382.56 1237 73 25 551 294994 20469  5% 38 10733267 181195 96%
c B 383.05 1237 71 25 555 300045 23825  5% 38 10733267 181195 96%
c - 388.71 1237 65 26 670 318633 20681  5% 38 10733267 181195 96%
c W 397.98 1237 63 26 697 325047 24832  5% 39 10733267 181195 96%
c - 411.70 1237 67 27 715 343183 21278  5% 38 10733267 181195 96%
c # 412.59 1237 68 27 791 351049 26107  5% 39 10733267 181195 96%
c - 417.94 1238 63 28 911 368643 22517  5% 39 10733267 181195 96%
c B 419.01 1238 61 28 914 378050 28985  5% 39 10733267 181195 96%
c - 433.12 1238 59 29 1077 395011 22751  5% 39 10733267 181195 96%
c W 444.91 1238 57 29 1154 406052 29623  5% 39 10733267 181195 96%
c - 450.07 1238 54 30 1197 422291 23133  5% 39 10733267 181195 96%
c F 451.51 1238 53 30 1203 435053 31489  5% 39 10733267 181195 96%
c - 456.69 1238 51 31 1255 450476 25699  4% 39 10733267 181195 96%
c B 466.80 1238 50 31 1274 465055 35503  4% 39 10733267 181195 96%
c - 471.82 1238 50 32 1367 479571 25789  4% 39 10733267 181195 96%
c W 485.99 1238 48 32 1393 496058 36273  4% 39 10733267 181195 96%
c - 490.81 1238 48 33 1404 509575 26218  4% 39 10733267 181195 96%
c 
c  seconds     reductions       redundant    irredundant
c           MB      restarts           trail          variables
c             level      conflicts         glue             remaining
c 
c } 490.97 1238 48 33 1404 511005 27286  4% 39 10733267 181195 96%
c [ 490.97 1238 1610 33 1404 511005 27286 12% 64 10733267 181195 96%
c W 513.80 1238 1329 33 1404 528060 38803 11% 61 10733267 181195 96%
c - 518.26 1239 1157 34 1406 540488 27994 10% 59 10733267 181195 96%
c I 521.78 1239 2479 34 1418 561061 43304 13% 66 10733267 181195 96%
c - 529.37 1251 3105 35 1419 572310 32723 15% 85 10733267 181195 96%
c B 531.47 1251 2473 35 1433 595063 46459 13% 84 10733267 181195 96%
c - 546.51 1246 3764 36 1434 605042 30396 16% 90 10733267 181195 96%
c W 567.97 1246 3413 36 1441 630065 50414 19% 94 10733267 181195 96%
c - 572.89 1248 3190 37 1445 638684 34681 19% 91 10733267 181195 96%
c O 576.87 1248 2640 37 1457 666067 54578 18% 91 10733267 181195 96%
c - 581.00 1244 2457 38 1462 673237 33829 17% 88 10733267 181195 96%
c s 581.45 1244 2457 38 1462 673237 31727 17% 88 10733267 181195 96%
c w 590.49 1244 2457 38 1462 673237 31721 17% 88 10733267 181195 96%
c ] 600.73 1244 2295 38 1464 680019 36460 16% 86 10733267 181195 96%
c ? 600.73 1244 2295 38 1464 680019 36460 16% 86 10733267 181195 96%
c 
c --- [ result ] -------------------------------------------------------------
c 
c UNKNOWN
c 
c --- [ run-time profiling ] -------------------------------------------------
c 
c process time taken by individual solving procedures
c (percentage relative to process time for solving)
c 
c       346.18   58.24% search
c       248.22   41.76% simplify
c       141.33   23.78% stable
c       113.97   19.17% unstable
c        90.83   15.28% walk
c        66.47   11.18% ternary
c        48.95    8.24% elim
c        45.72    7.69% vivify
c        10.93    1.84% probe
c        10.36    1.74% subsume
c         6.33    1.06% parse
c         0.05    0.01% lucky
c   =================================
c       594.41   98.95% solve
c 
c last line shows process time for solving
c (percentage relative to total process time)
c 
c --- [ statistics ] ---------------------------------------------------------
c 
c chronological:            123284        18.13 %  of conflicts
c conflicts:                680019      1144.03    per second
c decisions:               2332165      3923.52    per second
c eliminated:                 6405         3.39 %  of all variables
c fixed:                      1600         0.85 %  of all variables
c learned:                  673628        99.06 %  per conflict
c learned_lits:           89630670       100.00 %  learned literals
c minimized:                     0         0.00 %  learned literals
c shrunken:               41112249        45.87 %  learned literals
c minishrunken:            1757915         1.96 %  learned literals
c propagations:          251312482         0.42 M  per second
c reduced:                  422883        62.19 %  per conflict
c rephased:                     36     18889.42    interval
c restarts:                   1464       464.49    interval
c stabilizing:                   5        49.85 %  of conflicts
c subsumed:                 211319         0.87 %  of all clauses
c strengthened:              10972         0.05 %  of all clauses
c vivified:                     69         0.00 %  of all clauses
c walked:                       11     61819.91    interval
c weakened:                 701125         2.99    average size
c 
c seconds are measured in process time for solving
c 
c --- [ resources ] ----------------------------------------------------------
c 
c total process time since initialization:       600.73    seconds
c total real time since initialization:          600.79    seconds
c maximum resident set size of process:         1613.66    MB
c 
c --- [ shutting down ] ------------------------------------------------------
c 
c exit 0
